
Gurobi 6.5.2 (win64) logging started 07/22/16 20:28:58


Gurobi 6.5.2 (win64) logging started 07/22/16 20:28:58

Optimize a model with 1217 rows, 588 columns and 3366 nonzeros
Coefficient statistics:
  Matrix range    [6e-08, 1e+03]
  Objective range [1e+00, 1e+00]
  Bounds range    [1e+00, 1e+00]
  RHS range       [6e-06, 1e+03]
Presolve removed 1011 rows and 376 columns
Presolve time: 0.00s
Presolved: 206 rows, 212 columns, 945 nonzeros
Variable types: 212 continuous, 0 integer (0 binary)

Root relaxation: objective 1.619269e+02, 215 iterations, 0.00 seconds

    Nodes    |    Current Node    |     Objective Bounds      |     Work
 Expl Unexpl |  Obj  Depth IntInf | Incumbent    BestBd   Gap | It/Node Time

*    0     0               0     161.9268549  161.92685  0.00%     -    0s

Explored 0 nodes (215 simplex iterations) in 0.01 seconds
Thread count was 8 (of 8 available processors)

Optimal solution found (tolerance 1.00e-04)
Best objective 1.619268548562e+02, best bound 1.619268548562e+02, gap 0.0%

Wrote requested result file 'H1\instance3\\Results3EC_Sol5.lp'


Gurobi 6.5.2 (win64) logging started 07/22/16 21:05:26


Gurobi 6.5.2 (win64) logging started 07/22/16 21:05:26

Optimize a model with 1217 rows, 588 columns and 3366 nonzeros
Coefficient statistics:
  Matrix range    [6e-08, 1e+03]
  Objective range [1e+00, 1e+00]
  Bounds range    [1e+00, 1e+00]
  RHS range       [6e-06, 1e+03]
Presolve removed 1011 rows and 376 columns
Presolve time: 0.00s
Presolved: 206 rows, 212 columns, 945 nonzeros
Variable types: 212 continuous, 0 integer (0 binary)

Root relaxation: objective 1.619269e+02, 215 iterations, 0.02 seconds

    Nodes    |    Current Node    |     Objective Bounds      |     Work
 Expl Unexpl |  Obj  Depth IntInf | Incumbent    BestBd   Gap | It/Node Time

*    0     0               0     161.9268549  161.92685  0.00%     -    0s

Explored 0 nodes (215 simplex iterations) in 0.02 seconds
Thread count was 8 (of 8 available processors)

Optimal solution found (tolerance 1.00e-04)
Best objective 1.619268548562e+02, best bound 1.619268548562e+02, gap 0.0%

Wrote requested result file 'H1\instance3\\Results3EC_Sol5.lp'

